Maximize
F - ff - gg

Subject to
F - f1 - f2 - f3 - f4 = 0
f1 - 10X1 - 40X10 - 10X112 - 10X165 = 0
f2 - 5.0Y1 = 0
f3 - 3.0Z165 = 0
f4 - 8.0V10 - 2.0V112 - 2.0V165 = 0

ff - 0.017373s1 - 0.017373s10 - 0.017373s112 - 0.017373s165 
- 0.017373t1 
- 0.017373u165 
- 0.017373r10 - 0.017373r112 - 0.017373r165 
= 0
gg - 1.897799Y1 
- 2.710534Z165 
- 2.922795V10 - 3.368499V112 - 2.266534V165 = 0

n1 - X1 - X10 - X112 - X165 = 0
n2 - Y1 = 0
n3 - Z165 = 0
n4 - V10 - V112 - V165 = 0

X1 + Y1 <= 1

X165 + Z165 <= 1

X10 + V10 <= 1
X112 + V112 <= 1
X165 + V165 <= 1




x172x1x1 + x172x10x1 
+ y172y1y1 
<= 1
x86x1x1 + x86x10x1 
+ y86y1y1 
<= 1
x11x1x1 + x11x10x1 
+ y11y1y1 
<= 1

x126x1x1 + x126x10x1 
+ y126y1y1 
<= 1
x41x1x1 + x41x10x1 
+ y41y1y1 
<= 2
x9x1x1 + x9x10x1 
+ y9y1y1 
<= 1

x97x1x1 + x97x10x1 
+ y97y1y1 
<= 1




x80x1x2 + x80x10x2 + x80x112x2 + x80x165x2 
+ y80y1y2 
<= 1
x172x1x2 + x172x10x2 + x172x112x2 + x172x165x2 
+ y172y1y2 
<= 1
x86x1x2 + x86x10x2 + x86x112x2 + x86x165x2 
+ y86y1y2 
<= 1
x11x1x2 + x11x10x2 + x11x112x2 + x11x165x2 
+ y11y1y2 
<= 1
x107x1x2 + x107x10x2 + x107x112x2 + x107x165x2 
+ y107y1y2 
<= 1
x126x1x2 + x126x10x2 + x126x112x2 + x126x165x2 
+ y126y1y2 
<= 1


x149x1x2 + x149x10x2 + x149x112x2 + x149x165x2 
+ y149y1y2 
<= 1
x97x1x2 + x97x10x2 + x97x112x2 + x97x165x2 
+ y97y1y2 
<= 1


x142x112x3 

<= 1
x6x112x3 

<= 1
x80x112x3 

<= 1



x107x112x3 

<= 1


x9x112x3 

<= 1
x149x112x3 

<= 1

x27x112x3 

<= 1
x124x112x3 

<= 1



x172x1x1 + x172x10x1 

<= 1
x86x1x1 + x86x10x1 

<= 1
x11x1x1 + x11x10x1 

<= 1

x126x1x1 + x126x10x1 

<= 1
x41x1x1 + x41x10x1 

<= 2
x9x1x1 + x9x10x1 

<= 1

x97x1x1 + x97x10x1 

<= 1




x80x1x2 + x80x10x2 + x80x112x2 + x80x165x2 
+ z80z165z2 
<= 1
x172x1x2 + x172x10x2 + x172x112x2 + x172x165x2 
+ z172z165z2 
<= 1
x86x1x2 + x86x10x2 + x86x112x2 + x86x165x2 
+ z86z165z2 
<= 1
x11x1x2 + x11x10x2 + x11x112x2 + x11x165x2 
+ z11z165z2 
<= 1
x107x1x2 + x107x10x2 + x107x112x2 + x107x165x2 
+ z107z165z2 
<= 1
x126x1x2 + x126x10x2 + x126x112x2 + x126x165x2 
+ z126z165z2 
<= 1


x149x1x2 + x149x10x2 + x149x112x2 + x149x165x2 
+ z149z165z2 
<= 1
x97x1x2 + x97x10x2 + x97x112x2 + x97x165x2 
+ z97z165z2 
<= 1


x142x112x3 

<= 1
x6x112x3 

<= 1
x80x112x3 

<= 1



x107x112x3 

<= 1


x9x112x3 

<= 1
x149x112x3 

<= 1

x27x112x3 

<= 1
x124x112x3 

<= 1



x172x1x1 + x172x10x1 
+ v172v10v1 
<= 1
x86x1x1 + x86x10x1 
+ v86v10v1 
<= 1
x11x1x1 + x11x10x1 
+ v11v10v1 
<= 1

x126x1x1 + x126x10x1 
+ v126v10v1 
<= 1
x41x1x1 + x41x10x1 
+ v41v10v1 
<= 2
x9x1x1 + x9x10x1 
+ v9v10v1 
<= 1

x97x1x1 + x97x10x1 
+ v97v10v1 
<= 1




x80x1x2 + x80x10x2 + x80x112x2 + x80x165x2 
+ v80v10v2 + v80v112v2 + v80v165v2 
<= 1
x172x1x2 + x172x10x2 + x172x112x2 + x172x165x2 
+ v172v10v2 + v172v112v2 + v172v165v2 
<= 1
x86x1x2 + x86x10x2 + x86x112x2 + x86x165x2 
+ v86v10v2 + v86v112v2 + v86v165v2 
<= 1
x11x1x2 + x11x10x2 + x11x112x2 + x11x165x2 
+ v11v10v2 + v11v112v2 + v11v165v2 
<= 1
x107x1x2 + x107x10x2 + x107x112x2 + x107x165x2 
+ v107v10v2 + v107v112v2 + v107v165v2 
<= 1
x126x1x2 + x126x10x2 + x126x112x2 + x126x165x2 
+ v126v10v2 + v126v112v2 + v126v165v2 
<= 1


x149x1x2 + x149x10x2 + x149x112x2 + x149x165x2 
+ v149v10v2 + v149v112v2 + v149v165v2 
<= 1
x97x1x2 + x97x10x2 + x97x112x2 + x97x165x2 
+ v97v10v2 + v97v112v2 + v97v165v2 
<= 1


x142x112x3 
+ v142v112v3 
<= 1
x6x112x3 
+ v6v112v3 
<= 1
x80x112x3 
+ v80v112v3 
<= 1



x107x112x3 
+ v107v112v3 
<= 1


x9x112x3 
+ v9v112v3 
<= 1
x149x112x3 
+ v149v112v3 
<= 1

x27x112x3 
+ v27v112v3 
<= 1
x124x112x3 
+ v124v112v3 
<= 1
x172x1x1 + x86x1x1 + x11x1x1 + x126x1x1 + x41x1x1 + x9x1x1 + x97x1x1 
+ y172y1y1 + y86y1y1 + y11y1y1 + y126y1y1 + y41y1y1 + y9y1y1 + y97y1y1 + y10y1y1 
= 0
x80x1x2 + x172x1x2 + x86x1x2 + x11x1x2 + x107x1x2 + x126x1x2 + x149x1x2 + x97x1x2 
+ y80y1y2 + y172y1y2 + y86y1y2 + y11y1y2 + y107y1y2 + y126y1y2 + y149y1y2 + y97y1y2 + y10y1y2 + y112y1y2 + y165y1y2 
= 0

x172x10x1 + x86x10x1 + x11x10x1 + x126x10x1 + x41x10x1 + x9x10x1 + x97x10x1 
- y10y1y1 - y10y0y1
= 0
x80x10x2 + x172x10x2 + x86x10x2 + x11x10x2 + x107x10x2 + x126x10x2 + x149x10x2 + x97x10x2 + x112x10x2 
- y10y1y2 - y10y0y2
= 0

x80x112x2 + x172x112x2 + x86x112x2 + x11x112x2 + x107x112x2 + x126x112x2 + x149x112x2 + x97x112x2 
- x112x10x2 
- y112y1y2 - y112y0y2
= 0
x142x112x3 + x6x112x3 + x80x112x3 + x107x112x3 + x9x112x3 + x149x112x3 + x27x112x3 + x124x112x3 
= 0

x80x165x2 + x172x165x2 + x86x165x2 + x11x165x2 + x107x165x2 + x126x165x2 + x149x165x2 + x97x165x2 
- y165y1y2 - y165y0y2
= 0


x172x1x1 + x86x1x1 + x11x1x1 + x126x1x1 + x41x1x1 + x9x1x1 + x97x1x1 
= 0
x80x1x2 + x172x1x2 + x86x1x2 + x11x1x2 + x107x1x2 + x126x1x2 + x149x1x2 + x97x1x2 
- z1z165z2 - z1z0z2
= 0

x172x10x1 + x86x10x1 + x11x10x1 + x126x10x1 + x41x10x1 + x9x10x1 + x97x10x1 
= 0
x80x10x2 + x172x10x2 + x86x10x2 + x11x10x2 + x107x10x2 + x126x10x2 + x149x10x2 + x97x10x2 + x112x10x2 
- z10z165z2 - z10z0z2
= 0

x80x112x2 + x172x112x2 + x86x112x2 + x11x112x2 + x107x112x2 + x126x112x2 + x149x112x2 + x97x112x2 
- x112x10x2 
- z112z165z2 - z112z0z2
= 0
x142x112x3 + x6x112x3 + x80x112x3 + x107x112x3 + x9x112x3 + x149x112x3 + x27x112x3 + x124x112x3 
= 0

x80x165x2 + x172x165x2 + x86x165x2 + x11x165x2 + x107x165x2 + x126x165x2 + x149x165x2 + x97x165x2 
+ z80z165z2 + z172z165z2 + z86z165z2 + z11z165z2 + z107z165z2 + z126z165z2 + z149z165z2 + z97z165z2 + z1z165z2 + z10z165z2 + z112z165z2 
= 0


x172x1x1 + x86x1x1 + x11x1x1 + x126x1x1 + x41x1x1 + x9x1x1 + x97x1x1 
- v1v10v1 - v1v0v1
= 0
x80x1x2 + x172x1x2 + x86x1x2 + x11x1x2 + x107x1x2 + x126x1x2 + x149x1x2 + x97x1x2 
- v1v10v2 - v1v112v2 - v1v165v2 - v1v0v2
= 0

x172x10x1 + x86x10x1 + x11x10x1 + x126x10x1 + x41x10x1 + x9x10x1 + x97x10x1 
+ v172v10v1 + v86v10v1 + v11v10v1 + v126v10v1 + v41v10v1 + v9v10v1 + v97v10v1 + v1v10v1 
= 0
x80x10x2 + x172x10x2 + x86x10x2 + x11x10x2 + x107x10x2 + x126x10x2 + x149x10x2 + x97x10x2 + x112x10x2 
+ v80v10v2 + v172v10v2 + v86v10v2 + v11v10v2 + v107v10v2 + v126v10v2 + v149v10v2 + v97v10v2 + v1v10v2 + v112v10v2 
- v10v165v2 - v10v0v2
= 0

x80x112x2 + x172x112x2 + x86x112x2 + x11x112x2 + x107x112x2 + x126x112x2 + x149x112x2 + x97x112x2 
+ v80v112v2 + v172v112v2 + v86v112v2 + v11v112v2 + v107v112v2 + v126v112v2 + v149v112v2 + v97v112v2 + v1v112v2 
- x112x10x2 
- v112v10v2 - v112v165v2 - v112v0v2
= 0
x142x112x3 + x6x112x3 + x80x112x3 + x107x112x3 + x9x112x3 + x149x112x3 + x27x112x3 + x124x112x3 
+ v142v112v3 + v6v112v3 + v80v112v3 + v107v112v3 + v9v112v3 + v149v112v3 + v27v112v3 + v124v112v3 
= 0

x80x165x2 + x172x165x2 + x86x165x2 + x11x165x2 + x107x165x2 + x126x165x2 + x149x165x2 + x97x165x2 
+ v80v165v2 + v172v165v2 + v86v165v2 + v11v165v2 + v107v165v2 + v126v165v2 + v149v165v2 + v97v165v2 + v1v165v2 + v10v165v2 + v112v165v2 
= 0


1X1 - x172x1x1 - x86x1x1 - x11x1x1 - x126x1x1 - x41x1x1 - x9x1x1 - x97x1x1 = 0
1X1 - x80x1x2 - x172x1x2 - x86x1x2 - x11x1x2 - x107x1x2 - x126x1x2 - x149x1x2 - x97x1x2 = 0
1X10 - x172x10x1 - x86x10x1 - x11x10x1 - x126x10x1 - x41x10x1 - x9x10x1 - x97x10x1 = 0
1X10 - x80x10x2 - x172x10x2 - x86x10x2 - x11x10x2 - x107x10x2 - x126x10x2 - x149x10x2 - x97x10x2 - x112x10x2 = 0
1X112 - x80x112x2 - x172x112x2 - x86x112x2 - x11x112x2 - x107x112x2 - x126x112x2 - x149x112x2 - x97x112x2 = 0
1X112 - x142x112x3 - x6x112x3 - x80x112x3 - x107x112x3 - x9x112x3 - x149x112x3 - x27x112x3 - x124x112x3 = 0
2X165 - x80x165x2 - x172x165x2 - x86x165x2 - x11x165x2 - x107x165x2 - x126x165x2 - x149x165x2 - x97x165x2 = 0

1Y1 - y172y1y1 - y86y1y1 - y11y1y1 - y126y1y1 - y41y1y1 - y9y1y1 - y97y1y1 - y10y1y1 = 0
1Y1 - y80y1y2 - y172y1y2 - y86y1y2 - y11y1y2 - y107y1y2 - y126y1y2 - y149y1y2 - y97y1y2 - y10y1y2 - y112y1y2 - y165y1y2 = 0

2Z165 - z80z165z2 - z172z165z2 - z86z165z2 - z11z165z2 - z107z165z2 - z126z165z2 - z149z165z2 - z97z165z2 - z1z165z2 - z10z165z2 - z112z165z2 = 0

1V10 - v172v10v1 - v86v10v1 - v11v10v1 - v126v10v1 - v41v10v1 - v9v10v1 - v97v10v1 - v1v10v1 = 0
1V10 - v80v10v2 - v172v10v2 - v86v10v2 - v11v10v2 - v107v10v2 - v126v10v2 - v149v10v2 - v97v10v2 - v1v10v2 - v112v10v2 = 0
1V112 - v80v112v2 - v172v112v2 - v86v112v2 - v11v112v2 - v107v112v2 - v126v112v2 - v149v112v2 - v97v112v2 - v1v112v2 = 0
1V112 - v142v112v3 - v6v112v3 - v80v112v3 - v107v112v3 - v9v112v3 - v149v112v3 - v27v112v3 - v124v112v3 = 0
2V165 - v80v165v2 - v172v165v2 - v86v165v2 - v11v165v2 - v107v165v2 - v126v165v2 - v149v165v2 - v97v165v2 - v1v165v2 - v10v165v2 - v112v165v2 = 0


s142 - s112 + 5.591344a142a112a3 <= 3.90
s6 - s112 + 5.376427a6a112a3 <= 3.90
s80 - s1 + 5.806181a80a1a2 <= 4.37
s80 - s10 + 6.274057a80a10a2 <= 4.37
s80 - s112 + 6.293066a80a112a2 <= 4.37
s80 - s112 + 6.293066a80a112a3 <= 4.37
s80 - s165 + 6.102567a80a165a2 <= 4.37
s172 - s1 + 5.799576a172a1a1 <= 4.41
s172 - s1 + 5.799576a172a1a2 <= 4.41
s172 - s10 + 6.268737a172a10a1 <= 4.41
s172 - s10 + 6.268737a172a10a2 <= 4.41
s172 - s112 + 6.288722a172a112a2 <= 4.41
s172 - s165 + 6.096841a172a165a2 <= 4.41
s86 - s1 + 6.004629a86a1a1 <= 4.83
s86 - s1 + 6.004629a86a1a2 <= 4.83
s86 - s10 + 6.448985a86a10a1 <= 4.83
s86 - s10 + 6.448985a86a10a2 <= 4.83
s86 - s112 + 6.467528a86a112a2 <= 4.83
s86 - s165 + 6.278901a86a165a2 <= 4.83
s11 - s1 + 7.163146a11a1a1 <= 5.29
s11 - s1 + 7.163146a11a1a2 <= 5.29
s11 - s10 + 6.891209a11a10a1 <= 5.29
s11 - s10 + 6.891209a11a10a2 <= 5.29
s11 - s112 + 6.822216a11a112a2 <= 5.29
s11 - s165 + 6.960990a11a165a2 <= 5.29
s107 - s1 + 7.198788a107a1a2 <= 5.67
s107 - s10 + 6.928314a107a10a2 <= 5.67
s107 - s112 + 6.869983a107a112a2 <= 5.67
s107 - s112 + 6.869983a107a112a3 <= 5.67
s107 - s165 + 6.967943a107a165a2 <= 5.67
s126 - s1 + 6.571123a126a1a1 <= 5.46
s126 - s1 + 6.571123a126a1a2 <= 5.46
s126 - s10 + 6.843946a126a10a1 <= 5.46
s126 - s10 + 6.843946a126a10a2 <= 5.46
s126 - s112 + 6.872701a126a112a2 <= 5.46
s126 - s165 + 6.670087a126a165a2 <= 5.46
s41 - s1 + 6.195958a41a1a1 <= 4.91
s41 - s10 + 6.217078a41a10a1 <= 4.91
s9 - s1 + 6.550361a9a1a1 <= 5.05
s9 - s10 + 6.270862a9a10a1 <= 5.05
s9 - s112 + 6.216317a9a112a3 <= 5.05
s149 - s1 + 7.240132a149a1a2 <= 5.71
s149 - s10 + 6.925766a149a10a2 <= 5.71
s149 - s112 + 6.864684a149a112a2 <= 5.71
s149 - s112 + 6.864684a149a112a3 <= 5.71
s149 - s165 + 6.986372a149a165a2 <= 5.71
s97 - s1 + 6.396890a97a1a1 <= 5.19
s97 - s1 + 6.396890a97a1a2 <= 5.19
s97 - s10 + 6.479129a97a10a1 <= 5.19
s97 - s10 + 6.479129a97a10a2 <= 5.19
s97 - s112 + 6.504867a97a112a2 <= 5.19
s97 - s165 + 6.308814a97a165a2 <= 5.19
s27 - s112 + 5.212691a27a112a3 <= 3.58
s124 - s112 + 5.371412a124a112a3 <= 3.60
s112 - s10 + 7.499602a112a10a2 <= 6.43

t80 - t1 + 5.806181b80b1b2 <= 4.37
t172 - t1 + 5.799576b172b1b1 <= 4.41
t172 - t1 + 5.799576b172b1b2 <= 4.41
t86 - t1 + 6.004629b86b1b1 <= 4.83
t86 - t1 + 6.004629b86b1b2 <= 4.83
t11 - t1 + 7.163146b11b1b1 <= 5.29
t11 - t1 + 7.163146b11b1b2 <= 5.29
t107 - t1 + 7.198788b107b1b2 <= 5.67
t126 - t1 + 6.571123b126b1b1 <= 5.46
t126 - t1 + 6.571123b126b1b2 <= 5.46
t41 - t1 + 6.195958b41b1b1 <= 4.91
t9 - t1 + 6.550361b9b1b1 <= 5.05
t149 - t1 + 7.240132b149b1b2 <= 5.71
t97 - t1 + 6.396890b97b1b1 <= 5.19
t97 - t1 + 6.396890b97b1b2 <= 5.19
t10 - t1 + 21.483736b10b1b1 <= 20.00
t10 - t1 + 21.483736b10b1b2 <= 20.00
t112 - t1 + 21.515795b112b1b2 <= 20.00
t165 - t1 + 21.309265b165b1b2 <= 20.00

u80 - u165 + 6.102567c80c165c2 <= 4.37
u172 - u165 + 6.096841c172c165c2 <= 4.41
u86 - u165 + 6.278901c86c165c2 <= 4.83
u11 - u165 + 6.960990c11c165c2 <= 5.29
u107 - u165 + 6.967943c107c165c2 <= 5.67
u126 - u165 + 6.670087c126c165c2 <= 5.46
u149 - u165 + 6.986372c149c165c2 <= 5.71
u97 - u165 + 6.308814c97c165c2 <= 5.19
u1 - u165 + 21.309265c1c165c2 <= 20.00
u10 - u165 + 21.174484c10c165c2 <= 20.00
u112 - u165 + 21.211870c112c165c2 <= 20.00

r142 - r112 + 5.591344d142d112d3 <= 3.90
r6 - r112 + 5.376427d6d112d3 <= 3.90
r80 - r10 + 6.274057d80d10d2 <= 4.37
r80 - r112 + 6.293066d80d112d2 <= 4.37
r80 - r112 + 6.293066d80d112d3 <= 4.37
r80 - r165 + 6.102567d80d165d2 <= 4.37
r172 - r10 + 6.268737d172d10d1 <= 4.41
r172 - r10 + 6.268737d172d10d2 <= 4.41
r172 - r112 + 6.288722d172d112d2 <= 4.41
r172 - r165 + 6.096841d172d165d2 <= 4.41
r86 - r10 + 6.448985d86d10d1 <= 4.83
r86 - r10 + 6.448985d86d10d2 <= 4.83
r86 - r112 + 6.467528d86d112d2 <= 4.83
r86 - r165 + 6.278901d86d165d2 <= 4.83
r11 - r10 + 6.891209d11d10d1 <= 5.29
r11 - r10 + 6.891209d11d10d2 <= 5.29
r11 - r112 + 6.822216d11d112d2 <= 5.29
r11 - r165 + 6.960990d11d165d2 <= 5.29
r107 - r10 + 6.928314d107d10d2 <= 5.67
r107 - r112 + 6.869983d107d112d2 <= 5.67
r107 - r112 + 6.869983d107d112d3 <= 5.67
r107 - r165 + 6.967943d107d165d2 <= 5.67
r126 - r10 + 6.843946d126d10d1 <= 5.46
r126 - r10 + 6.843946d126d10d2 <= 5.46
r126 - r112 + 6.872701d126d112d2 <= 5.46
r126 - r165 + 6.670087d126d165d2 <= 5.46
r41 - r10 + 6.217078d41d10d1 <= 4.91
r9 - r10 + 6.270862d9d10d1 <= 5.05
r9 - r112 + 6.216317d9d112d3 <= 5.05
r149 - r10 + 6.925766d149d10d2 <= 5.71
r149 - r112 + 6.864684d149d112d2 <= 5.71
r149 - r112 + 6.864684d149d112d3 <= 5.71
r149 - r165 + 6.986372d149d165d2 <= 5.71
r97 - r10 + 6.479129d97d10d1 <= 5.19
r97 - r10 + 6.479129d97d10d2 <= 5.19
r97 - r112 + 6.504867d97d112d2 <= 5.19
r97 - r165 + 6.308814d97d165d2 <= 5.19
r27 - r112 + 5.212691d27d112d3 <= 3.58
r124 - r112 + 5.371412d124d112d3 <= 3.60
r1 - r10 + 21.483736d1d10d1 <= 20.00
r1 - r10 + 21.483736d1d10d2 <= 20.00
r1 - r112 + 21.515795d1d112d2 <= 20.00
r1 - r165 + 21.309265d1d165d2 <= 20.00
r10 - r165 + 7.754483d10d165d2 <= 6.58
r112 - r10 + 7.499602d112d10d2 <= 6.43
r112 - r165 + 7.641870d112d165d2 <= 6.43

x172x1x1 + x86x1x1 + x11x1x1 + x126x1x1 + x41x1x1 + x9x1x1 + x97x1x1 + x80x1x2 + x172x1x2 + x86x1x2 + x11x1x2 + x107x1x2 + x126x1x2 + x149x1x2 + x97x1x2 

- 2w1 <= 0

x172x10x1 + x86x10x1 + x11x10x1 + x126x10x1 + x41x10x1 + x9x10x1 + x97x10x1 + x80x10x2 + x172x10x2 + x86x10x2 + x11x10x2 + x107x10x2 + x126x10x2 + x149x10x2 + x97x10x2 + x112x10x2 

- 2w10 <= 0

x80x112x2 + x172x112x2 + x86x112x2 + x11x112x2 + x107x112x2 + x126x112x2 + x149x112x2 + x97x112x2 + x142x112x3 + x6x112x3 + x80x112x3 + x107x112x3 + x9x112x3 + x149x112x3 + x27x112x3 + x124x112x3 
- x112x10x2 
- 2w112 <= 0

x80x165x2 + x172x165x2 + x86x165x2 + x11x165x2 + x107x165x2 + x126x165x2 + x149x165x2 + x97x165x2 

- 2w165 <= 0

x172x1x1 + x86x1x1 + x11x1x1 + x126x1x1 + x41x1x1 + x9x1x1 + x97x1x1 + x80x1x2 + x172x1x2 + x86x1x2 + x11x1x2 + x107x1x2 + x126x1x2 + x149x1x2 + x97x1x2 

- w1 >= 0

x172x10x1 + x86x10x1 + x11x10x1 + x126x10x1 + x41x10x1 + x9x10x1 + x97x10x1 + x80x10x2 + x172x10x2 + x86x10x2 + x11x10x2 + x107x10x2 + x126x10x2 + x149x10x2 + x97x10x2 + x112x10x2 

- w10 >= 0

x80x112x2 + x172x112x2 + x86x112x2 + x11x112x2 + x107x112x2 + x126x112x2 + x149x112x2 + x97x112x2 + x142x112x3 + x6x112x3 + x80x112x3 + x107x112x3 + x9x112x3 + x149x112x3 + x27x112x3 + x124x112x3 
- x112x10x2 
- w112 >= 0

x80x165x2 + x172x165x2 + x86x165x2 + x11x165x2 + x107x165x2 + x126x165x2 + x149x165x2 + x97x165x2 

- w165 >= 0

s142 - t142 + 3.90w142 <= 3.90
s6 - t6 + 3.90w6 <= 3.90
s80 - t80 + 4.37w80 <= 4.37
s172 - t172 + 4.41w172 <= 4.41
s86 - t86 + 4.83w86 <= 4.83
s11 - t11 + 5.29w11 <= 5.29
s107 - t107 + 5.67w107 <= 5.67
s126 - t126 + 5.46w126 <= 5.46
s41 - t41 + 4.91w41 <= 4.91
s9 - t9 + 5.05w9 <= 5.05
s149 - t149 + 5.71w149 <= 5.71
s97 - t97 + 5.19w97 <= 5.19
s27 - t27 + 3.58w27 <= 3.58
s124 - t124 + 3.60w124 <= 3.60
s1 - t1 + 6.24w1 <= 6.24
s10 - t10 + 6.58w10 <= 6.58
s112 - t112 + 6.43w112 <= 6.43
s165 - t165 + 6.14w165 <= 6.14
s142 - u142 + 3.90w142 <= 3.90
s6 - u6 + 3.90w6 <= 3.90
s80 - u80 + 4.37w80 <= 4.37
s172 - u172 + 4.41w172 <= 4.41
s86 - u86 + 4.83w86 <= 4.83
s11 - u11 + 5.29w11 <= 5.29
s107 - u107 + 5.67w107 <= 5.67
s126 - u126 + 5.46w126 <= 5.46
s41 - u41 + 4.91w41 <= 4.91
s9 - u9 + 5.05w9 <= 5.05
s149 - u149 + 5.71w149 <= 5.71
s97 - u97 + 5.19w97 <= 5.19
s27 - u27 + 3.58w27 <= 3.58
s124 - u124 + 3.60w124 <= 3.60
s1 - u1 + 6.24w1 <= 6.24
s10 - u10 + 6.58w10 <= 6.58
s112 - u112 + 6.43w112 <= 6.43
s165 - u165 + 6.14w165 <= 6.14
s142 - r142 + 3.90w142 <= 3.90
s6 - r6 + 3.90w6 <= 3.90
s80 - r80 + 4.37w80 <= 4.37
s172 - r172 + 4.41w172 <= 4.41
s86 - r86 + 4.83w86 <= 4.83
s11 - r11 + 5.29w11 <= 5.29
s107 - r107 + 5.67w107 <= 5.67
s126 - r126 + 5.46w126 <= 5.46
s41 - r41 + 4.91w41 <= 4.91
s9 - r9 + 5.05w9 <= 5.05
s149 - r149 + 5.71w149 <= 5.71
s97 - r97 + 5.19w97 <= 5.19
s27 - r27 + 3.58w27 <= 3.58
s124 - r124 + 3.60w124 <= 3.60
s1 - r1 + 6.24w1 <= 6.24
s10 - r10 + 6.58w10 <= 6.58
s112 - r112 + 6.43w112 <= 6.43
s165 - r165 + 6.14w165 <= 6.14

s142 - t142 - 3.90w142 >= -3.90
s6 - t6 - 3.90w6 >= -3.90
s80 - t80 - 4.37w80 >= -4.37
s172 - t172 - 4.41w172 >= -4.41
s86 - t86 - 4.83w86 >= -4.83
s11 - t11 - 5.29w11 >= -5.29
s107 - t107 - 5.67w107 >= -5.67
s126 - t126 - 5.46w126 >= -5.46
s41 - t41 - 4.91w41 >= -4.91
s9 - t9 - 5.05w9 >= -5.05
s149 - t149 - 5.71w149 >= -5.71
s97 - t97 - 5.19w97 >= -5.19
s27 - t27 - 3.58w27 >= -3.58
s124 - t124 - 3.60w124 >= -3.60
s1 - t1 - 6.24w1 >= -6.24
s10 - t10 - 20.00w10 >= -20.00
s112 - t112 - 20.00w112 >= -20.00
s165 - t165 - 20.00w165 >= -20.00


s142 - u142 - 3.90w142 >= -3.90
s6 - u6 - 3.90w6 >= -3.90
s80 - u80 - 4.37w80 >= -4.37
s172 - u172 - 4.41w172 >= -4.41
s86 - u86 - 4.83w86 >= -4.83
s11 - u11 - 5.29w11 >= -5.29
s107 - u107 - 5.67w107 >= -5.67
s126 - u126 - 5.46w126 >= -5.46
s41 - u41 - 4.91w41 >= -4.91
s9 - u9 - 5.05w9 >= -5.05
s149 - u149 - 5.71w149 >= -5.71
s97 - u97 - 5.19w97 >= -5.19
s27 - u27 - 3.58w27 >= -3.58
s124 - u124 - 3.60w124 >= -3.60
s1 - u1 - 20.00w1 >= -20.00
s10 - u10 - 20.00w10 >= -20.00
s112 - u112 - 20.00w112 >= -20.00
s165 - u165 - 6.14w165 >= -6.14


s142 - r142 - 3.90w142 >= -3.90
s6 - r6 - 3.90w6 >= -3.90
s80 - r80 - 4.37w80 >= -4.37
s172 - r172 - 4.41w172 >= -4.41
s86 - r86 - 4.83w86 >= -4.83
s11 - r11 - 5.29w11 >= -5.29
s107 - r107 - 5.67w107 >= -5.67
s126 - r126 - 5.46w126 >= -5.46
s41 - r41 - 4.91w41 >= -4.91
s9 - r9 - 5.05w9 >= -5.05
s149 - r149 - 5.71w149 >= -5.71
s97 - r97 - 5.19w97 >= -5.19
s27 - r27 - 3.58w27 >= -3.58
s124 - r124 - 3.60w124 >= -3.60
s1 - r1 - 20.00w1 >= -20.00
s10 - r10 - 6.58w10 >= -6.58
s112 - r112 - 6.43w112 >= -6.43
s165 - r165 - 6.78w165 >= -6.78


s1 + 6.24a80a1a2 <= 12.24
s1 + 6.24a172a1a1 <= 12.24
s1 + 6.24a172a1a2 <= 12.24
s1 + 6.24a86a1a1 <= 12.24
s1 + 6.24a86a1a2 <= 12.24
s1 + 6.24a11a1a1 <= 12.24
s1 + 6.24a11a1a2 <= 12.24
s1 + 6.24a107a1a2 <= 12.24
s1 + 6.24a126a1a1 <= 12.24
s1 + 6.24a126a1a2 <= 12.24
s1 + 6.24a41a1a1 <= 12.24
s1 + 6.24a9a1a1 <= 12.24
s1 + 6.24a149a1a2 <= 12.24
s1 + 6.24a97a1a1 <= 12.24
s1 + 6.24a97a1a2 <= 12.24
s10 + 6.58a80a10a2 <= 12.58
s10 + 6.58a172a10a1 <= 12.58
s10 + 6.58a172a10a2 <= 12.58
s10 + 6.58a86a10a1 <= 12.58
s10 + 6.58a86a10a2 <= 12.58
s10 + 6.58a11a10a1 <= 12.58
s10 + 6.58a11a10a2 <= 12.58
s10 + 6.58a107a10a2 <= 12.58
s10 + 6.58a126a10a1 <= 12.58
s10 + 6.58a126a10a2 <= 12.58
s10 + 6.58a41a10a1 <= 12.58
s10 + 6.58a9a10a1 <= 12.58
s10 + 6.58a149a10a2 <= 12.58
s10 + 6.58a97a10a1 <= 12.58
s10 + 6.58a97a10a2 <= 12.58
s10 + 6.58a112a10a2 <= 12.58
s112 + 6.43a142a112a3 <= 12.43
s112 + 6.43a6a112a3 <= 12.43
s112 + 6.43a80a112a2 <= 12.43
s112 + 6.43a80a112a3 <= 12.43
s112 + 6.43a172a112a2 <= 12.43
s112 + 6.43a86a112a2 <= 12.43
s112 + 6.43a11a112a2 <= 12.43
s112 + 6.43a107a112a2 <= 12.43
s112 + 6.43a107a112a3 <= 12.43
s112 + 6.43a126a112a2 <= 12.43
s112 + 6.43a9a112a3 <= 12.43
s112 + 6.43a149a112a2 <= 12.43
s112 + 6.43a149a112a3 <= 12.43
s112 + 6.43a97a112a2 <= 12.43
s112 + 6.43a27a112a3 <= 12.43
s112 + 6.43a124a112a3 <= 12.43
s165 + 6.14a80a165a2 <= 12.14
s165 + 6.14a172a165a2 <= 12.14
s165 + 6.14a86a165a2 <= 12.14
s165 + 6.14a11a165a2 <= 12.14
s165 + 6.14a107a165a2 <= 12.14
s165 + 6.14a126a165a2 <= 12.14
s165 + 6.14a149a165a2 <= 12.14
s165 + 6.14a97a165a2 <= 12.14

u165 - 6.0c80c165c2 > 0
u165 - 6.0c172c165c2 > 0
u165 - 6.0c86c165c2 > 0
u165 - 6.0c11c165c2 > 0
u165 - 6.0c107c165c2 > 0
u165 - 6.0c126c165c2 > 0
u165 - 6.0c149c165c2 > 0
u165 - 6.0c97c165c2 > 0
u165 - 6.0c1c165c2 > 0
u165 - 6.0c10c165c2 > 0
u165 - 6.0c112c165c2 > 0

r10 - 6.0d80d10d2 > 0
r10 - 6.0d172d10d1 > 0
r10 - 6.0d172d10d2 > 0
r10 - 6.0d86d10d1 > 0
r10 - 6.0d86d10d2 > 0
r10 - 6.0d11d10d1 > 0
r10 - 6.0d11d10d2 > 0
r10 - 6.0d107d10d2 > 0
r10 - 6.0d126d10d1 > 0
r10 - 6.0d126d10d2 > 0
r10 - 6.0d41d10d1 > 0
r10 - 6.0d9d10d1 > 0
r10 - 6.0d149d10d2 > 0
r10 - 6.0d97d10d1 > 0
r10 - 6.0d97d10d2 > 0
r10 - 6.0d1d10d1 > 0
r10 - 6.0d1d10d2 > 0
r10 - 6.0d112d10d2 > 0
r112 - 6.0d142d112d3 > 0
r112 - 6.0d6d112d3 > 0
r112 - 6.0d80d112d2 > 0
r112 - 6.0d80d112d3 > 0
r112 - 6.0d172d112d2 > 0
r112 - 6.0d86d112d2 > 0
r112 - 6.0d11d112d2 > 0
r112 - 6.0d107d112d2 > 0
r112 - 6.0d107d112d3 > 0
r112 - 6.0d126d112d2 > 0
r112 - 6.0d9d112d3 > 0
r112 - 6.0d149d112d2 > 0
r112 - 6.0d149d112d3 > 0
r112 - 6.0d97d112d2 > 0
r112 - 6.0d27d112d3 > 0
r112 - 6.0d124d112d3 > 0
r112 - 6.0d1d112d2 > 0
r165 - 6.0d80d165d2 > 0
r165 - 6.0d172d165d2 > 0
r165 - 6.0d86d165d2 > 0
r165 - 6.0d11d165d2 > 0
r165 - 6.0d107d165d2 > 0
r165 - 6.0d126d165d2 > 0
r165 - 6.0d149d165d2 > 0
r165 - 6.0d97d165d2 > 0
r165 - 6.0d1d165d2 > 0
r165 - 6.0d10d165d2 > 0
r165 - 6.0d112d165d2 > 0


a80a1a2 + b80b1b2 <= 1
a172a1a1 + b172b1b1 <= 1
a172a1a2 + b172b1b2 <= 1
a86a1a1 + b86b1b1 <= 1
a86a1a2 + b86b1b2 <= 1
a11a1a1 + b11b1b1 <= 1
a11a1a2 + b11b1b2 <= 1
a107a1a2 + b107b1b2 <= 1
a126a1a1 + b126b1b1 <= 1
a126a1a2 + b126b1b2 <= 1
a41a1a1 + b41b1b1 <= 1
a9a1a1 + b9b1b1 <= 1
a149a1a2 + b149b1b2 <= 1
a97a1a1 + b97b1b1 <= 1
a97a1a2 + b97b1b2 <= 1
a80a10a2 + b80b10b2 <= 1
a172a10a1 + b172b10b1 <= 1
a172a10a2 + b172b10b2 <= 1
a86a10a1 + b86b10b1 <= 1
a86a10a2 + b86b10b2 <= 1
a11a10a1 + b11b10b1 <= 1
a11a10a2 + b11b10b2 <= 1
a107a10a2 + b107b10b2 <= 1
a126a10a1 + b126b10b1 <= 1
a126a10a2 + b126b10b2 <= 1
a41a10a1 + b41b10b1 <= 1
a9a10a1 + b9b10b1 <= 1
a149a10a2 + b149b10b2 <= 1
a97a10a1 + b97b10b1 <= 1
a97a10a2 + b97b10b2 <= 1
a112a10a2 + b112b10b2 <= 1
a142a112a3 + b142b112b3 <= 1
a6a112a3 + b6b112b3 <= 1
a80a112a2 + b80b112b2 <= 1
a80a112a3 + b80b112b3 <= 1
a172a112a2 + b172b112b2 <= 1
a86a112a2 + b86b112b2 <= 1
a11a112a2 + b11b112b2 <= 1
a107a112a2 + b107b112b2 <= 1
a107a112a3 + b107b112b3 <= 1
a126a112a2 + b126b112b2 <= 1
a9a112a3 + b9b112b3 <= 1
a149a112a2 + b149b112b2 <= 1
a149a112a3 + b149b112b3 <= 1
a97a112a2 + b97b112b2 <= 1
a27a112a3 + b27b112b3 <= 1
a124a112a3 + b124b112b3 <= 1
a80a165a2 + b80b165b2 <= 1
a172a165a2 + b172b165b2 <= 1
a86a165a2 + b86b165b2 <= 1
a11a165a2 + b11b165b2 <= 1
a107a165a2 + b107b165b2 <= 1
a126a165a2 + b126b165b2 <= 1
a149a165a2 + b149b165b2 <= 1
a97a165a2 + b97b165b2 <= 1


a80a1a2 + c80c1c2 <= 1
a172a1a1 + c172c1c1 <= 1
a172a1a2 + c172c1c2 <= 1
a86a1a1 + c86c1c1 <= 1
a86a1a2 + c86c1c2 <= 1
a11a1a1 + c11c1c1 <= 1
a11a1a2 + c11c1c2 <= 1
a107a1a2 + c107c1c2 <= 1
a126a1a1 + c126c1c1 <= 1
a126a1a2 + c126c1c2 <= 1
a41a1a1 + c41c1c1 <= 1
a9a1a1 + c9c1c1 <= 1
a149a1a2 + c149c1c2 <= 1
a97a1a1 + c97c1c1 <= 1
a97a1a2 + c97c1c2 <= 1
a80a10a2 + c80c10c2 <= 1
a172a10a1 + c172c10c1 <= 1
a172a10a2 + c172c10c2 <= 1
a86a10a1 + c86c10c1 <= 1
a86a10a2 + c86c10c2 <= 1
a11a10a1 + c11c10c1 <= 1
a11a10a2 + c11c10c2 <= 1
a107a10a2 + c107c10c2 <= 1
a126a10a1 + c126c10c1 <= 1
a126a10a2 + c126c10c2 <= 1
a41a10a1 + c41c10c1 <= 1
a9a10a1 + c9c10c1 <= 1
a149a10a2 + c149c10c2 <= 1
a97a10a1 + c97c10c1 <= 1
a97a10a2 + c97c10c2 <= 1
a112a10a2 + c112c10c2 <= 1
a142a112a3 + c142c112c3 <= 1
a6a112a3 + c6c112c3 <= 1
a80a112a2 + c80c112c2 <= 1
a80a112a3 + c80c112c3 <= 1
a172a112a2 + c172c112c2 <= 1
a86a112a2 + c86c112c2 <= 1
a11a112a2 + c11c112c2 <= 1
a107a112a2 + c107c112c2 <= 1
a107a112a3 + c107c112c3 <= 1
a126a112a2 + c126c112c2 <= 1
a9a112a3 + c9c112c3 <= 1
a149a112a2 + c149c112c2 <= 1
a149a112a3 + c149c112c3 <= 1
a97a112a2 + c97c112c2 <= 1
a27a112a3 + c27c112c3 <= 1
a124a112a3 + c124c112c3 <= 1
a80a165a2 + c80c165c2 <= 1
a172a165a2 + c172c165c2 <= 1
a86a165a2 + c86c165c2 <= 1
a11a165a2 + c11c165c2 <= 1
a107a165a2 + c107c165c2 <= 1
a126a165a2 + c126c165c2 <= 1
a149a165a2 + c149c165c2 <= 1
a97a165a2 + c97c165c2 <= 1


a80a1a2 + d80d1d2 <= 1
a172a1a1 + d172d1d1 <= 1
a172a1a2 + d172d1d2 <= 1
a86a1a1 + d86d1d1 <= 1
a86a1a2 + d86d1d2 <= 1
a11a1a1 + d11d1d1 <= 1
a11a1a2 + d11d1d2 <= 1
a107a1a2 + d107d1d2 <= 1
a126a1a1 + d126d1d1 <= 1
a126a1a2 + d126d1d2 <= 1
a41a1a1 + d41d1d1 <= 1
a9a1a1 + d9d1d1 <= 1
a149a1a2 + d149d1d2 <= 1
a97a1a1 + d97d1d1 <= 1
a97a1a2 + d97d1d2 <= 1
a80a10a2 + d80d10d2 <= 1
a172a10a1 + d172d10d1 <= 1
a172a10a2 + d172d10d2 <= 1
a86a10a1 + d86d10d1 <= 1
a86a10a2 + d86d10d2 <= 1
a11a10a1 + d11d10d1 <= 1
a11a10a2 + d11d10d2 <= 1
a107a10a2 + d107d10d2 <= 1
a126a10a1 + d126d10d1 <= 1
a126a10a2 + d126d10d2 <= 1
a41a10a1 + d41d10d1 <= 1
a9a10a1 + d9d10d1 <= 1
a149a10a2 + d149d10d2 <= 1
a97a10a1 + d97d10d1 <= 1
a97a10a2 + d97d10d2 <= 1
a112a10a2 + d112d10d2 <= 1
a142a112a3 + d142d112d3 <= 1
a6a112a3 + d6d112d3 <= 1
a80a112a2 + d80d112d2 <= 1
a80a112a3 + d80d112d3 <= 1
a172a112a2 + d172d112d2 <= 1
a86a112a2 + d86d112d2 <= 1
a11a112a2 + d11d112d2 <= 1
a107a112a2 + d107d112d2 <= 1
a107a112a3 + d107d112d3 <= 1
a126a112a2 + d126d112d2 <= 1
a9a112a3 + d9d112d3 <= 1
a149a112a2 + d149d112d2 <= 1
a149a112a3 + d149d112d3 <= 1
a97a112a2 + d97d112d2 <= 1
a27a112a3 + d27d112d3 <= 1
a124a112a3 + d124d112d3 <= 1
a80a165a2 + d80d165d2 <= 1
a172a165a2 + d172d165d2 <= 1
a86a165a2 + d86d165d2 <= 1
a11a165a2 + d11d165d2 <= 1
a107a165a2 + d107d165d2 <= 1
a126a165a2 + d126d165d2 <= 1
a149a165a2 + d149d165d2 <= 1
a97a165a2 + d97d165d2 <= 1

x142x112x3 - 1a142a112a3 <= 0
x6x112x3 - 1a6a112a3 <= 0
x80x1x2 - 1a80a1a2 <= 0
x80x10x2 - 1a80a10a2 <= 0
x80x112x2 - 1a80a112a2 <= 0
x80x112x3 - 1a80a112a3 <= 0
x80x165x2 - 2a80a165a2 <= 0
x172x1x1 - 1a172a1a1 <= 0
x172x1x2 - 1a172a1a2 <= 0
x172x10x1 - 1a172a10a1 <= 0
x172x10x2 - 1a172a10a2 <= 0
x172x112x2 - 1a172a112a2 <= 0
x172x165x2 - 2a172a165a2 <= 0
x86x1x1 - 1a86a1a1 <= 0
x86x1x2 - 1a86a1a2 <= 0
x86x10x1 - 1a86a10a1 <= 0
x86x10x2 - 1a86a10a2 <= 0
x86x112x2 - 1a86a112a2 <= 0
x86x165x2 - 2a86a165a2 <= 0
x11x1x1 - 1a11a1a1 <= 0
x11x1x2 - 1a11a1a2 <= 0
x11x10x1 - 1a11a10a1 <= 0
x11x10x2 - 1a11a10a2 <= 0
x11x112x2 - 1a11a112a2 <= 0
x11x165x2 - 2a11a165a2 <= 0
x107x1x2 - 1a107a1a2 <= 0
x107x10x2 - 1a107a10a2 <= 0
x107x112x2 - 1a107a112a2 <= 0
x107x112x3 - 1a107a112a3 <= 0
x107x165x2 - 2a107a165a2 <= 0
x126x1x1 - 1a126a1a1 <= 0
x126x1x2 - 1a126a1a2 <= 0
x126x10x1 - 1a126a10a1 <= 0
x126x10x2 - 1a126a10a2 <= 0
x126x112x2 - 1a126a112a2 <= 0
x126x165x2 - 2a126a165a2 <= 0
x41x1x1 - 1a41a1a1 <= 0
x41x10x1 - 1a41a10a1 <= 0
x9x1x1 - 1a9a1a1 <= 0
x9x10x1 - 1a9a10a1 <= 0
x9x112x3 - 1a9a112a3 <= 0
x149x1x2 - 1a149a1a2 <= 0
x149x10x2 - 1a149a10a2 <= 0
x149x112x2 - 1a149a112a2 <= 0
x149x112x3 - 1a149a112a3 <= 0
x149x165x2 - 2a149a165a2 <= 0
x97x1x1 - 1a97a1a1 <= 0
x97x1x2 - 1a97a1a2 <= 0
x97x10x1 - 1a97a10a1 <= 0
x97x10x2 - 1a97a10a2 <= 0
x97x112x2 - 1a97a112a2 <= 0
x97x165x2 - 2a97a165a2 <= 0
x27x112x3 - 1a27a112a3 <= 0
x124x112x3 - 1a124a112a3 <= 0
x112x10x2 - 1a112a10a2 <= 0
y80y1y2 - 1b80b1b2 <= 0
y172y1y1 - 1b172b1b1 <= 0
y172y1y2 - 1b172b1b2 <= 0
y86y1y1 - 1b86b1b1 <= 0
y86y1y2 - 1b86b1b2 <= 0
y11y1y1 - 1b11b1b1 <= 0
y11y1y2 - 1b11b1b2 <= 0
y107y1y2 - 1b107b1b2 <= 0
y126y1y1 - 1b126b1b1 <= 0
y126y1y2 - 1b126b1b2 <= 0
y41y1y1 - 1b41b1b1 <= 0
y9y1y1 - 1b9b1b1 <= 0
y149y1y2 - 1b149b1b2 <= 0
y97y1y1 - 1b97b1b1 <= 0
y97y1y2 - 1b97b1b2 <= 0
y10y1y1 - 1b10b1b1 <= 0
y10y1y2 - 1b10b1b2 <= 0
y112y1y2 - 1b112b1b2 <= 0
y165y1y2 - 1b165b1b2 <= 0
z80z165z2 - 2c80c165c2 <= 0
z172z165z2 - 2c172c165c2 <= 0
z86z165z2 - 2c86c165c2 <= 0
z11z165z2 - 2c11c165c2 <= 0
z107z165z2 - 2c107c165c2 <= 0
z126z165z2 - 2c126c165c2 <= 0
z149z165z2 - 2c149c165c2 <= 0
z97z165z2 - 2c97c165c2 <= 0
z1z165z2 - 2c1c165c2 <= 0
z10z165z2 - 2c10c165c2 <= 0
z112z165z2 - 2c112c165c2 <= 0
v142v112v3 - 1d142d112d3 <= 0
v6v112v3 - 1d6d112d3 <= 0
v80v10v2 - 1d80d10d2 <= 0
v80v112v2 - 1d80d112d2 <= 0
v80v112v3 - 1d80d112d3 <= 0
v80v165v2 - 2d80d165d2 <= 0
v172v10v1 - 1d172d10d1 <= 0
v172v10v2 - 1d172d10d2 <= 0
v172v112v2 - 1d172d112d2 <= 0
v172v165v2 - 2d172d165d2 <= 0
v86v10v1 - 1d86d10d1 <= 0
v86v10v2 - 1d86d10d2 <= 0
v86v112v2 - 1d86d112d2 <= 0
v86v165v2 - 2d86d165d2 <= 0
v11v10v1 - 1d11d10d1 <= 0
v11v10v2 - 1d11d10d2 <= 0
v11v112v2 - 1d11d112d2 <= 0
v11v165v2 - 2d11d165d2 <= 0
v107v10v2 - 1d107d10d2 <= 0
v107v112v2 - 1d107d112d2 <= 0
v107v112v3 - 1d107d112d3 <= 0
v107v165v2 - 2d107d165d2 <= 0
v126v10v1 - 1d126d10d1 <= 0
v126v10v2 - 1d126d10d2 <= 0
v126v112v2 - 1d126d112d2 <= 0
v126v165v2 - 2d126d165d2 <= 0
v41v10v1 - 1d41d10d1 <= 0
v9v10v1 - 1d9d10d1 <= 0
v9v112v3 - 1d9d112d3 <= 0
v149v10v2 - 1d149d10d2 <= 0
v149v112v2 - 1d149d112d2 <= 0
v149v112v3 - 1d149d112d3 <= 0
v149v165v2 - 2d149d165d2 <= 0
v97v10v1 - 1d97d10d1 <= 0
v97v10v2 - 1d97d10d2 <= 0
v97v112v2 - 1d97d112d2 <= 0
v97v165v2 - 2d97d165d2 <= 0
v27v112v3 - 1d27d112d3 <= 0
v124v112v3 - 1d124d112d3 <= 0
v1v10v1 - 1d1d10d1 <= 0
v1v10v2 - 1d1d10d2 <= 0
v1v112v2 - 1d1d112d2 <= 0
v1v165v2 - 2d1d165d2 <= 0
v10v165v2 - 2d10d165d2 <= 0
v112v10v2 - 1d112d10d2 <= 0
v112v165v2 - 2d112d165d2 <= 0

Bounds
s142 = 3.896570
t142 = 3.896570
u142 = 3.896570
r142 = 3.896570
s6 = 3.899166
t6 = 3.899166
u6 = 3.899166
r6 = 3.899166
s80 = 4.372848
t80 = 4.372848
u80 = 4.372848
r80 = 4.372848
s172 = 4.414753
t172 = 4.414753
u172 = 4.414753
r172 = 4.414753
s86 = 4.833879
t86 = 4.833879
u86 = 4.833879
r86 = 4.833879
s11 = 5.289508
t11 = 5.289508
u11 = 5.289508
r11 = 5.289508
s107 = 5.669428
t107 = 5.669428
u107 = 5.669428
r107 = 5.669428
s126 = 5.463420
t126 = 5.463420
u126 = 5.463420
r126 = 5.463420
s41 = 4.912958
t41 = 4.912958
u41 = 4.912958
r41 = 4.912958
s9 = 5.049251
t9 = 5.049251
u9 = 5.049251
r9 = 5.049251
s149 = 5.710772
t149 = 5.710772
u149 = 5.710772
r149 = 5.710772
s97 = 5.192385
t97 = 5.192385
u97 = 5.192385
r97 = 5.192385
s27 = 3.580060
t27 = 3.580060
u27 = 3.580060
r27 = 3.580060
s124 = 3.604890
t124 = 3.604890
u124 = 3.604890
r124 = 3.604890
5.24 <= s1 <= 6.24
5.58 <= s10 <= 6.58
5.43 <= s112 <= 6.43
5.78 <= s165 <= 6.14

5.24 <= t1 <= 6.24
0.00 <= t10 <= 20.00
0.00 <= t112 <= 20.00
0.00 <= t165 <= 20.00

0.00 <= u1 <= 20.00
0.00 <= u10 <= 20.00
0.00 <= u112 <= 20.00
5.14 <= u165 <= 6.14

0.00 <= r1 <= 20.00
5.58 <= r10 <= 6.58
5.43 <= r112 <= 6.43
5.78 <= r165 <= 6.78

General
x142x112x3 
x6x112x3 
x80x1x2 x80x10x2 x80x112x2 x80x112x3 x80x165x2 
x172x1x1 x172x1x2 x172x10x1 x172x10x2 x172x112x2 x172x165x2 
x86x1x1 x86x1x2 x86x10x1 x86x10x2 x86x112x2 x86x165x2 
x11x1x1 x11x1x2 x11x10x1 x11x10x2 x11x112x2 x11x165x2 
x107x1x2 x107x10x2 x107x112x2 x107x112x3 x107x165x2 
x126x1x1 x126x1x2 x126x10x1 x126x10x2 x126x112x2 x126x165x2 
x41x1x1 x41x10x1 
x9x1x1 x9x10x1 x9x112x3 
x149x1x2 x149x10x2 x149x112x2 x149x112x3 x149x165x2 
x97x1x1 x97x1x2 x97x10x1 x97x10x2 x97x112x2 x97x165x2 
x27x112x3 
x124x112x3 
x112x10x2 

y80y1y2 
y172y1y1 y172y1y2 
y86y1y1 y86y1y2 
y11y1y1 y11y1y2 
y107y1y2 
y126y1y1 y126y1y2 
y41y1y1 
y9y1y1 
y149y1y2 
y97y1y1 y97y1y2 
y10y1y1 y10y1y2 
y112y1y2 
y165y1y2 

z80z165z2 
z172z165z2 
z86z165z2 
z11z165z2 
z107z165z2 
z126z165z2 
z149z165z2 
z97z165z2 
z1z165z2 
z10z165z2 
z112z165z2 

v142v112v3 
v6v112v3 
v80v10v2 v80v112v2 v80v112v3 v80v165v2 
v172v10v1 v172v10v2 v172v112v2 v172v165v2 
v86v10v1 v86v10v2 v86v112v2 v86v165v2 
v11v10v1 v11v10v2 v11v112v2 v11v165v2 
v107v10v2 v107v112v2 v107v112v3 v107v165v2 
v126v10v1 v126v10v2 v126v112v2 v126v165v2 
v41v10v1 
v9v10v1 v9v112v3 
v149v10v2 v149v112v2 v149v112v3 v149v165v2 
v97v10v1 v97v10v2 v97v112v2 v97v165v2 
v27v112v3 
v124v112v3 
v1v10v1 v1v10v2 v1v112v2 v1v165v2 
v10v165v2 
v112v10v2 v112v165v2 

Binaries
X1 X10 X112 X165 
Y1 
Z165 
V10 V112 V165 

w1 w10 w112 w165 

a142a112a3 
a6a112a3 
a80a1a2 a80a10a2 a80a112a2 a80a112a3 a80a165a2 
a172a1a1 a172a1a2 a172a10a1 a172a10a2 a172a112a2 a172a165a2 
a86a1a1 a86a1a2 a86a10a1 a86a10a2 a86a112a2 a86a165a2 
a11a1a1 a11a1a2 a11a10a1 a11a10a2 a11a112a2 a11a165a2 
a107a1a2 a107a10a2 a107a112a2 a107a112a3 a107a165a2 
a126a1a1 a126a1a2 a126a10a1 a126a10a2 a126a112a2 a126a165a2 
a41a1a1 a41a10a1 
a9a1a1 a9a10a1 a9a112a3 
a149a1a2 a149a10a2 a149a112a2 a149a112a3 a149a165a2 
a97a1a1 a97a1a2 a97a10a1 a97a10a2 a97a112a2 a97a165a2 
a27a112a3 
a124a112a3 
a112a10a2 

b80b1b2 
b172b1b1 b172b1b2 
b86b1b1 b86b1b2 
b11b1b1 b11b1b2 
b107b1b2 
b126b1b1 b126b1b2 
b41b1b1 
b9b1b1 
b149b1b2 
b97b1b1 b97b1b2 
b10b1b1 b10b1b2 
b112b1b2 
b165b1b2 

c80c165c2 
c172c165c2 
c86c165c2 
c11c165c2 
c107c165c2 
c126c165c2 
c149c165c2 
c97c165c2 
c1c165c2 
c10c165c2 
c112c165c2 

d142d112d3 
d6d112d3 
d80d10d2 d80d112d2 d80d112d3 d80d165d2 
d172d10d1 d172d10d2 d172d112d2 d172d165d2 
d86d10d1 d86d10d2 d86d112d2 d86d165d2 
d11d10d1 d11d10d2 d11d112d2 d11d165d2 
d107d10d2 d107d112d2 d107d112d3 d107d165d2 
d126d10d1 d126d10d2 d126d112d2 d126d165d2 
d41d10d1 
d9d10d1 d9d112d3 
d149d10d2 d149d112d2 d149d112d3 d149d165d2 
d97d10d1 d97d10d2 d97d112d2 d97d165d2 
d27d112d3 
d124d112d3 
d1d10d1 d1d10d2 d1d112d2 d1d165d2 
d10d165d2 
d112d10d2 d112d165d2 

End